  52  134  154  346  412  460  480  484  490  516  522  568  672  688  688  702  756  826  840  880 
 442  498  282  582  456  324  252   94  448  908  546  702  650  814  324  746  784  864  514  962 
 386  942  480  234   80   66  404  486  640  950  896  940  176  582  934  284  198  858  632  816 
